0 44914838
1 44920410
2 44920410
3 44920410
4 45449476
5 45449476
6 45449476
7 45449476
8 45449476
9 45449476
10 45449476
11 45449476
12 45449476
13 45449476
14 45449476
15 45449476
16 45449476
17 45449476
18 45449476
19 45449476
20 45449476
21 45449476
22 45449476
23 45449476
24 45449476
25 45449476
26 45449476
27 45449476
28 45449476
29 45449476
30 45449476
31 45449476
32 45449476
33 45449476
34 45449476
35 45449476
36 45449476
37 45449476
38 45449476
39 45449476
40 45449476
41 45449476
42 45449476
43 45449476
44 45449476
45 45449476
46 45449476
47 45449476
48 45449476
49 45449476
50 45449476
51 45449476
52 45449476
53 45449476
54 45449476
55 45449476
56 45449476
57 45449476
58 45449476
59 45449476
60 45449476
61 45449476
62 45449476
63 45449476
64 45449476
65 45449476
66 45449476
67 45449476
68 45449476
69 45449476
70 45449476
71 45449476
72 45449476
73 45449476
74 45449476
75 45449476
76 45449476
77 45449476
78 45449476
79 45449476
80 45449476
81 45449476
82 45449476
83 45449476
84 45449476
85 45449476
86 45449476
87 45449476
88 45449476
89 45449476
90 45449476
91 45449476
92 45449476
93 45449476
94 45449476
95 45449476
96 45449476
97 45449476
98 45449476
99 45449476